g3 0 1 0	# problem djtl
 2 0 1 0 0	# vars, constraints, objectives, ranges, eqns
 0 1	# nonlinear constraints, objectives
 0 0	# network constraints: nonlinear, linear
 0 2 0	# nonlinear vars in constraints, objectives, both
 0 0 0 1	# linear network variables; functions; arith, flags
 0 0 0 0 0	# discrete variables: binary, integer, nonlinear (b,c,o)
 0 2	# nonzeros in Jacobian, gradients
 1 2	# max name lengths: constraints, variables
 0 0 0 0 0	# common exprs: b,c,o,c1,o1
O0 0
o54
3
o5
o1
v0
n10
n3
o5
o1
v1
n20
n3
o35
o23
o54
3
o1
o16
o5
o1
v0
n5
n2
o5
o1
v1
n5
n2
n200
n1
n0
o2
n1e+10
o5
o0
o1
o16
o5
o1
v0
n5
n2
o5
o1
v1
n5
n2
n200
n2
o0
o16
o43
o54
3
o1
o16
o5
o1
v0
n5
n2
o5
o1
v1
n5
n2
n200
n1
o35
o23
o0
o1
o0
o5
o1
v0
n5
n2
o5
o1
v1
n5
n2
n100
n1
n0
o2
n1e+10
o5
o1
o0
o5
o1
v0
n5
n2
o5
o1
v1
n5
n2
n100
n2
o0
o16
o43
o0
o1
o0
o5
o1
v0
n5
n2
o5
o1
v1
n5
n2
n100
n1
o35
o23
o54
3
o5
o1
v1
n5
n2
o5
o1
v0
n6
n2
n1
n0
o2
n1e+10
o5
o0
o5
o1
v1
n5
n2
o5
o1
v0
n6
n2
n2
o0
o16
o43
o54
3
o5
o1
v1
n5
n2
o5
o1
v0
n6
n2
n1
o35
o23
o54
3
o1
o16
o5
o1
v1
n5
n2
o5
o1
v0
n6
n2
n82.81
n1
n0
o2
n1e+10
o5
o0
o1
o16
o5
o1
v1
n5
n2
o5
o1
v0
n6
n2
n82.81
n2
o0
o16
o43
o54
3
o1
o16
o5
o1
v1
n5
n2
o5
o1
v0
n6
n2
n82.81
n1
o35
o23
o0
o1
n100
v0
n1
n0
o2
n1e+10
o5
o1
n100
v0
n2
o0
o16
o43
o0
o1
n100
v0
n1
o35
o23
o0
o1
v0
n13
n1
n0
o2
n1e+10
o5
o1
v0
n13
n2
o0
o16
o43
o0
o1
v0
n13
n1
o35
o23
o0
o1
n100
v1
n1
n0
o2
n1e+10
o5
o1
n100
v1
n2
o0
o16
o43
o0
o1
n100
v1
n1
o35
o23
o0
v1
n1
n0
o2
n1e+10
o5
v1
n2
o16
o43
o0
v1
n1
x2
0 15
1 -1
b
3
3
k1
0
G0 2
0 0
1 0
